# PREREQUISITES:
#


# ----------------------------- Initialization Section --------------------



#
#	VARIABLES 
#

variable init_temperature equal 300.0
variable temperature      equal 300.0
variable anneal_temp      equal 850.0
variable pressure         equal 1.0

variable time_nvt_eq1     equal 100
variable time_nvt_h       equal 1000
variable time_nvt_eq2      equal 2000
variable time_nvt_cooling  equal 1000
variable time_nvt_eq3      equal 100
variable time_nvt_prod    equal 4

variable dt               equal 0.001
variable temperature_damp equal ${dt}*100
variable pressure_damp    equal ${dt}*1000

variable iterations_nvt_eq1  equal floor(${time_nvt_eq1}/${dt})
variable iterations_nvt_h    equal floor(${time_nvt_h}/${dt})
variable iterations_nvt_eq2  equal floor(${time_nvt_eq2}/${dt})
variable iterations_nvt_cooling  equal floor(${time_nvt_cooling}/${dt})
variable iterations_nvt_eq3  equal floor(${time_nvt_eq3}/${dt})
variable iterations_nvt_prod  equal floor(${time_nvt_prod}/${dt})

variable output_nvt_eq1     equal floor(${iterations_nvt_eq1}/1000)
variable output_nvt_h    equal floor(${iterations_nvt_h}/1000)
variable output_nvt_eq2  equal floor(${iterations_nvt_eq2}/1000)
variable output_nvt_cooling   equal floor(${iterations_nvt_cooling}/1000)
variable output_nvt_eq3   equal floor(${iterations_nvt_eq3}/1000)
variable output_nvt_prod   equal floor(${iterations_nvt_prod}/1333)

variable random_seed  equal 436451

    units        metal
    atom_style   full
    pair_style  airebo 3 0 0 
    boundary p p p 
  

# ----------------------------- Atom Definition Section -------------------

variable SphereSize equal 7.4442

lattice diamond 3.56

region whole block -40 40 -40 40 -40 40 units lattice
create_box 1 whole
region particle sphere 0.0 0.0 0.0 ${SphereSize} side in units lattice

mass 1 12
create_atoms 1 region particle



#neigh_modify one 10 
#delete_atoms overlap 0.1 all all

# ----------------------------- Settings Section --------------------------

    #              i       j                             epsilon     sigma
pair_coeff  * *  ./forcefields/CH.airebo C



# ----------------------------- Run Section -------------------------------

# -- simulation protocol --


delete_atoms overlap 0.1 all all

#
#	ENERGY MINIMIZATION
#
minimize 1.0e-4 1.0e-4 100 1000

write_data      ./results/system_minimized.config

timestep        ${dt}
run_style       verlet
velocity        all create ${init_temperature} ${random_seed} mom yes rot yes dist gaussian

#------------NVT eq1
log nvt_eq1.log

fix             nvt_eq1_id all nvt temp ${temperature} ${temperature} ${temperature_damp}

# output
fix 		output_id all print ${output_nvt_eq1} "$(step),$(temp),$(press),$(pe),$(ke),$(ecoul),$(epair),$(lx),$(ly),$(lz),$(cella),$(cellb),$(cellc),$(vol)" title "time step,temperature,pressure,potential energy,kinetic energy,pair energy,lx,ly,lz,a,b,c,vol" file nvt_eq1.csv screen no

thermo_style    custom step temp press pe ke ecoul epair lx ly lz cella cellb cellc cellalpha cellbeta cellgamma vol
thermo          ${output_nvt_eq1}
dump            trj_dump all atom ${output_nvt_eq1} ./results/nvt_eq1.lammpstrj

#----------------------------
run             ${iterations_nvt_eq1}
#----------------------------
unfix nvt_eq1_id
unfix output_id
undump trj_dump
write_restart	./results/restart_nvt_eq1.dat



#------------NVT heating
log nvt_h.log

fix             nvt_h_id all nvt temp ${init_temperature} ${anneal_temp} ${temperature_damp}

# output
fix 		output_id all print ${output_nvt_h} "$(step),$(temp),$(press),$(pe),$(ke),$(ecoul),$(epair),$(lx),$(ly),$(lz),$(cella),$(cellb),$(cellc),$(vol)" title "time step,temperature,pressure,potential energy,kinetic energy,pair energy,lx,ly,lz,a,b,c,vol" file nvt_h.csv screen no
thermo_style    custom step temp press pe ke ecoul epair lx ly lz cella cellb cellc cellalpha cellbeta cellgamma vol
thermo          ${output_nvt_h}

dump            trj_dump all atom ${output_nvt_h} ./results/nvt_h.lammpstrj

#----------------------------
run             ${iterations_nvt_h}
#----------------------------

unfix           nvt_h_id
unfix		output_id
undump		trj_dump
write_restart	./results/restart_nvt_h.dat




#------------NVT eq2
log nvt_eq2.log

fix             nvt_eq2_id all nvt temp ${anneal_temp} ${anneal_temp} ${temperature_damp}

# output
fix 		output_id all print ${output_nvt_eq2} "$(step),$(temp),$(press),$(pe),$(ke),$(ecoul),$(epair),$(lx),$(ly),$(lz),$(cella),$(cellb),$(cellc),$(vol)" title "time step,temperature,pressure,potential energy,kinetic energy,pair energy,lx,ly,lz,a,b,c,vol" file nvt_eq2.csv screen no

thermo_style    custom step temp press pe ke ecoul epair lx ly lz cella cellb cellc cellalpha cellbeta cellgamma vol
thermo          ${output_nvt_eq2}
dump            trj_dump all atom ${output_nvt_eq2} ./results/nvt_eq2.lammpstrj

#----------------------------
run             ${iterations_nvt_eq2}
#----------------------------
unfix nvt_eq2_id
unfix output_id
undump trj_dump
write_restart	./results/restart_nvt_eq2.dat


#------------NVT cooling
log nvt_cooling.log

fix             cooling_id all nvt temp ${anneal_temp} ${init_temperature} ${temperature_damp}

fix 		output_id all print ${output_nvt_cooling} "$(step),$(temp),$(press),$(pe),$(ke),$(ecoul),$(epair),$(lx),$(ly),$(lz),$(cella),$(cellb),$(cellc),$(vol)" title "time step,temperature,pressure,potential energy,kinetic energy,pair energy,lx,ly,lz,a,b,c,vol" file nvt_cooling.csv screen no

thermo_style    custom step temp press pe ke ecoul epair lx ly lz cella cellb cellc cellalpha cellbeta cellgamma vol
thermo          ${output_nvt_cooling}
dump            trj_dump all atom ${output_nvt_cooling} ./results/nvt_cooling.lammpstrj


#----------------------------
run             ${iterations_nvt_cooling}
#----------------------------
unfix           cooling_id
unfix		output_id
undump		trj_dump
#----------------------------
write_data      ./results/npt_cooled.write


#------------NVT eq3
log nvt_eq3.log

fix             nvt_eq3_id all nvt temp ${temperature} ${temperature} ${temperature_damp}

# output
fix 		output_id all print ${output_nvt_eq3} "$(step),$(temp),$(press),$(pe),$(ke),$(ecoul),$(epair),$(lx),$(ly),$(lz),$(cella),$(cellb),$(cellc),$(vol)" title "time step,temperature,pressure,potential energy,kinetic energy,pair energy,lx,ly,lz,a,b,c,vol" file nvt_eq3.csv screen no

thermo_style    custom step temp press pe ke ecoul epair lx ly lz cella cellb cellc cellalpha cellbeta cellgamma vol
thermo          ${output_nvt_eq3}
dump            trj_dump all atom ${output_nvt_eq3} ./results/nvt_eq3.lammpstrj

#----------------------------
run             ${iterations_nvt_eq3}
#----------------------------
unfix nvt_eq3_id
unfix output_id
undump trj_dump
write_restart	./results/restart_nvt_eq3.dat


#------------NVT prod
log nvt_prod.log

fix             nvt_prod_id all nvt temp ${temperature} ${temperature} ${temperature_damp}

# output
fix 		output_id all print ${output_nvt_prod} "$(step),$(temp),$(press),$(pe),$(ke),$(ecoul),$(epair),$(lx),$(ly),$(lz),$(cella),$(cellb),$(cellc),$(vol)" title "time step,temperature,pressure,potential energy,kinetic energy,pair energy,lx,ly,lz,a,b,c,vol" file nvt_prod.csv screen no

thermo_style    custom step temp press pe ke ecoul epair lx ly lz cella cellb cellc cellalpha cellbeta cellgamma vol
thermo          ${output_nvt_prod}
dump            trj_dump all atom ${output_nvt_prod} ./results/nvt_prod.lammpstrj

reset_timestep  0

#----------------------------
run             ${iterations_nvt_prod}
#----------------------------
unfix           nvt_prod_id
unfix 		output_id
undump          trj_dump

write_data      ./results/nvt_prod.write
write_restart	./results/restart_nvt_prod.dat