# PREREQUISITES:
#

# ----------------------------- Initialization Section --------------------

    units        metal
    atom_style   full
    pair_style  airebo 3 0 0 
    boundary p p p 
  

# ----------------------------- Atom Definition Section -------------------

variable SetTemp equal 300
variable SphereSize equal 12.4070

lattice diamond 3.56

region whole block -40 40 -40 40 -40 40 units lattice
create_box 1 whole
region particle sphere 0.0 0.0 0.0 ${SphereSize} side in units lattice

mass 1 12
create_atoms 1 region particle




#neigh_modify one 10 
#delete_atoms overlap 0.1 all all

# ----------------------------- Settings Section --------------------------

    #              i       j                             epsilon     sigma
pair_coeff  * *  ./forcefields/CH.airebo C



# ----------------------------- Run Section -------------------------------

# -- simulation protocol --


delete_atoms overlap 0.1 all all

print "--------- beginning simulation (using fix nvt) ---------"

thermo_style    custom step temp pe etotal press vol epair #ebond eangle edihed
thermo          1  # time interval for printing out "thermo" data
write_data ./results/system_before_nvt.data

minimize 1.0e-4 1.0e-6 100 1000

dump myDump all atom 3 ./results/nvt_prod.lammpstrj

velocity all create ${SetTemp} 48455 mom yes rot yes
fix mynvt all nvt temp ${SetTemp} ${SetTemp} 0.1

timestep        0.001
run		10000

write_data  ./results/system_after_nvt.data
write_data  ./results/prod.config

