# PREREQUISITES:
#

# ----------------------------- Initialization Section --------------------

    units        metal
    atom_style   full
    pair_style  airebo 3 1 1 
    boundary p p p 
  

# ----------------------------- Atom Definition Section -------------------

variable SetTemp equal 300
variable SphereSize equal 2.4814

lattice diamond 3.56

region whole block -40 40 -40 40 -40 40 units lattice
create_box 1 whole

region particle1 sphere 0.0 0.0 0.0 ${SphereSize} side in units lattice
mass 1 12
create_atoms 1 region particle1


variable Spacer equal 1
variable Particle2X equal 2*${SphereSize}+${Spacer}

region particle2 sphere ${Particle2X} 0.0 0.0 ${SphereSize} side in units lattice
create_atoms 1 region particle2

region particle3 sphere 0.0 ${Particle2X} 0.0 ${SphereSize} side in units lattice
create_atoms 1 region particle3

region particle4 sphere 0.0 0.0 ${Particle2X} ${SphereSize} side in units lattice
create_atoms 1 region particle4

# corner atoms
variable Particle5X equal (sqrt(2)/2)*${Particle2X}

region particle5 sphere ${Particle5X} ${Particle5X} ${Particle5X} ${SphereSize} side in units lattice
create_atoms 1 region particle5

region particle6 sphere -${Particle2X} 0.0 0.0 ${SphereSize} side in units lattice
create_atoms 1 region particle6

region particle7 sphere 0.0 -${Particle2X} 0.0 ${SphereSize} side in units lattice
create_atoms 1 region particle7

region particle8 sphere 0.0 0.0 -${Particle2X} ${SphereSize} side in units lattice
create_atoms 1 region particle8

region particle9 sphere -${Particle5X} -${Particle5X} -${Particle5X} ${SphereSize} side in units lattice
create_atoms 1 region particle9

region particle10 sphere -${Particle5X} ${Particle5X} -${Particle5X} ${SphereSize} side in units lattice
create_atoms 1 region particle10

variable Particle11X equal ${Particle2X}*2

region particle11 sphere -${Particle11X} 0.0 0.0 ${SphereSize} side in units lattice
create_atoms 1 region particle11

region particle12 sphere 0.0 -${Particle11X} 0.0 ${SphereSize} side in units lattice
create_atoms 1 region particle12

region particle13 sphere 0.0 0.0 -${Particle11X} ${SphereSize} side in units lattice
create_atoms 1 region particle13

# corner atoms x2
variable Particle14X equal 2*${Particle5X}

region particle14 sphere -${Particle14X} -${Particle14X} 0.0 ${SphereSize} side in units lattice
create_atoms 1 region particle14

region particle15 sphere -${Particle14X} ${Particle14X} -${Particle14X} ${SphereSize} side in units lattice
create_atoms 1 region particle15




#neigh_modify one 10 
#delete_atoms overlap 0.1 all all

# ----------------------------- Settings Section --------------------------

    #              i       j                             epsilon     sigma
pair_coeff  * *  ./forcefields/CH.airebo C



# ----------------------------- Run Section -------------------------------

# -- simulation protocol --


delete_atoms overlap 0.1 all all

print "--------- beginning simulation (using fix nvt) ---------"

thermo_style    custom step temp pe etotal press vol epair #ebond eangle edihed
thermo          1  # time interval for printing out "thermo" data
write_data ./results/system_before_nvt.data

minimize 1.0e-4 1.0e-6 100 1000

dump myDump all atom 3 ./results/nvt_prod.lammpstrj

reset_atom_ids sort yes
velocity all create ${SetTemp} 48455 mom yes rot yes
fix mynvt all nvt temp ${SetTemp} ${SetTemp} 0.1

fix 		output_id all print 3 "$(step),$(temp),$(press),$(pe),$(ke),$(ecoul),$(epair),$(lx),$(ly),$(lz),$(cella),$(cellb),$(cellc),$(vol)" title "time step,temperature,pressure,potential energy,kinetic energy,pair energy,lx,ly,lz,a,b,c,vol" file nvt_prod.csv screen no

timestep        0.001
run		20000

write_data  ./results/system_after_nvt.data
write_data  ./results/prod.config

